p wcnf 148 176 177 
1 3 42 0 
1 -1 84 0 
1 -41 -45 0 
1 25 -95 0 
1 -77 57 0 
1 -23 31 0 
1 1 123 0 
1 25 -4 0 
1 -20 76 0 
1 76 -118 0 
1 -125 -115 0 
1 112 129 0 
1 -61 36 0 
1 54 -100 0 
1 9 42 0 
1 -111 80 0 
1 -146 32 0 
1 -144 55 0 
1 29 53 0 
1 -24 -80 0 
1 -138 33 0 
1 17 -14 0 
1 47 113 0 
1 73 -71 0 
1 -30 -115 0 
1 101 102 0 
1 124 -132 0 
1 -82 -19 0 
1 -108 103 0 
1 -63 85 0 
1 33 -3 0 
1 -119 -131 0 
1 114 -23 0 
1 22 -113 0 
1 37 116 0 
1 12 -48 0 
1 137 36 0 
1 139 128 0 
1 131 -93 0 
1 -13 144 0 
1 49 39 0 
1 -40 -132 0 
1 -109 -47 0 
1 -95 -101 0 
1 -51 -136 0 
1 -136 -102 0 
1 -134 51 0 
1 -70 -77 0 
1 -120 114 0 
1 -8 114 0 
1 130 -148 0 
1 -81 96 0 
1 -39 -109 0 
1 139 87 0 
1 -130 69 0 
1 113 -128 0 
1 64 148 0 
1 -90 -140 0 
1 147 -112 0 
1 -83 -27 0 
1 -92 1 0 
1 -142 -2 0 
1 66 -19 0 
1 124 -93 0 
1 62 129 0 
1 -58 -41 0 
1 -136 69 0 
1 51 116 0 
1 100 -16 0 
1 14 29 0 
1 147 123 0 
1 -20 105 0 
1 -110 -20 0 
1 105 10 0 
1 50 -37 0 
1 51 -16 0 
1 47 -139 0 
1 12 76 0 
1 71 -41 0 
1 12 -32 0 
1 -147 -51 0 
1 -57 -51 0 
1 -59 116 0 
1 -64 -98 0 
1 41 -35 0 
1 -101 31 0 
1 108 -38 0 
1 86 -102 0 
1 -77 104 0 
1 -147 -18 0 
1 119 16 0 
1 59 39 0 
1 28 97 0 
1 -1 -133 0 
1 -96 -1 0 
1 -3 -85 0 
1 -90 131 0 
1 99 -66 0 
1 -24 37 0 
1 -41 -82 0 
1 -37 67 0 
1 43 113 0 
1 -109 43 0 
1 27 11 0 
1 2 -32 0 
1 59 133 0 
1 39 132 0 
1 -14 -34 0 
1 5 143 0 
1 29 108 0 
1 79 -23 0 
1 17 -10 0 
1 52 97 0 
1 -132 -137 0 
1 20 102 0 
1 19 88 0 
1 -132 38 0 
1 -58 140 0 
1 85 32 0 
1 -39 -6 0 
1 82 34 0 
1 128 -22 0 
1 62 84 0 
1 -44 -115 0 
1 -102 -137 0 
1 82 -1 0 
1 79 -9 0 
1 -44 58 0 
1 -142 -17 0 
1 15 16 0 
1 53 -144 0 
1 44 -25 0 
1 -60 142 0 
1 25 -82 0 
1 -37 145 0 
1 57 76 0 
1 72 142 0 
1 -78 -121 0 
1 -112 75 0 
1 -108 -15 0 
1 144 -141 0 
1 53 51 0 
1 -61 146 0 
1 -105 -43 0 
1 74 146 0 
1 -140 90 0 
1 -143 -127 0 
1 -100 7 0 
1 23 41 0 
1 -109 148 0 
1 43 -70 0 
1 12 -71 0 
1 -139 -110 0 
1 72 16 0 
1 8 -79 0 
1 -123 87 0 
1 -75 24 0 
1 21 -40 0 
1 -104 -97 0 
1 -124 -2 0 
1 120 14 0 
1 -76 51 0 
1 59 94 0 
1 26 -53 0 
1 139 63 0 
1 64 134 0 
1 -57 132 0 
1 11 -38 0 
1 -49 -29 0 
1 11 77 0 
1 -91 -34 0 
1 59 -8 0 
1 97 90 0 
1 -20 125 0 
1 -25 19 0 
1 93 -58 0 
